NAME /Users/henri/Research/solvers/instances/idol-instances/robust/collection/cbp_Subramanyam_et_al_2020/CapBud_N30_12/models/uncertain_technology_matrix/
ROWS
 N  OBJ
 L  capacity
 L  c_6205
 L  c_6206
 L  c_6207
 L  c_6208
 L  c_6209
 L  c_6210
 L  c_6211
 L  c_6212
 L  c_6213
 L  c_6214
 L  c_6215
 L  c_6216
 L  c_6217
 L  c_6218
 L  c_6219
 L  c_6220
 L  c_6221
 L  c_6222
 L  c_6223
 L  c_6224
 L  c_6225
 L  c_6226
 L  c_6227
 L  c_6228
 L  c_6229
 L  c_6230
 L  c_6231
 L  c_6232
 L  c_6233
 L  c_6234
COLUMNS
    MARKER    'MARKER'                 'INTORG'
    x_0        OBJ        -2.02868
    x_0        c_6205     1
    x_0        capacity   0.405737
    x_1        OBJ        -4.34307
    x_1        c_6206     1
    x_1        capacity   0.868614
    x_2        OBJ        -5.39776
    x_2        c_6207     1
    x_2        capacity   1.07955
    x_3        OBJ        -8.99794
    x_3        c_6208     1
    x_3        capacity   1.79959
    x_4        OBJ        -9.97572
    x_4        c_6209     1
    x_4        capacity   1.99514
    x_5        OBJ        -3.58517
    x_5        c_6210     1
    x_5        capacity   0.717034
    x_6        OBJ        -3.46408
    x_6        c_6211     1
    x_6        capacity   0.692816
    x_7        OBJ        -2.28172
    x_7        c_6212     1
    x_7        capacity   0.456344
    x_8        OBJ        -0.972869
    x_8        c_6213     1
    x_8        capacity   0.194574
    x_9        OBJ        -4.77863
    x_9        c_6214     1
    x_9        capacity   0.955726
    x_10       OBJ        -3.39929
    x_10       c_6215     1
    x_10       capacity   0.679858
    x_11       OBJ        -3.49573
    x_11       c_6216     1
    x_11       capacity   0.699146
    x_12       OBJ        -2.87564
    x_12       c_6217     1
    x_12       capacity   0.575129
    x_13       OBJ        -8.68355
    x_13       c_6218     1
    x_13       capacity   1.73671
    x_14       OBJ        -0.686962
    x_14       c_6219     1
    x_14       capacity   0.137392
    x_15       OBJ        -3.21566
    x_15       c_6220     1
    x_15       capacity   0.643132
    x_16       OBJ        -4.28721
    x_16       c_6221     1
    x_16       capacity   0.857442
    x_17       OBJ        -1.26479
    x_17       c_6222     1
    x_17       capacity   0.252958
    x_18       OBJ        -1.62061
    x_18       c_6223     1
    x_18       capacity   0.324123
    x_19       OBJ        -4.20521
    x_19       c_6224     1
    x_19       capacity   0.841041
    x_20       OBJ        -7.39423
    x_20       c_6225     1
    x_20       capacity   1.47885
    x_21       OBJ        -0.428808
    x_21       c_6226     1
    x_21       capacity   0.0857617
    x_22       OBJ        -7.70509
    x_22       c_6227     1
    x_22       capacity   1.54102
    x_23       OBJ        -0.166538
    x_23       c_6228     1
    x_23       capacity   0.0333076
    x_24       OBJ        -1.18453
    x_24       c_6229     1
    x_24       capacity   0.236907
    x_25       OBJ        -1.05081
    x_25       c_6230     1
    x_25       capacity   0.210162
    x_26       OBJ        -4.78186
    x_26       c_6231     1
    x_26       capacity   0.956373
    x_27       OBJ        -8.41542
    x_27       c_6232     1
    x_27       capacity   1.68308
    x_28       OBJ        -9.77569
    x_28       c_6233     1
    x_28       capacity   1.95514
    x_29       OBJ        -9.63546
    x_29       c_6234     1
    x_29       capacity   1.92709
    y_0        OBJ        -1.62295
    y_0        c_6205     1
    y_0        capacity   0.405737
    y_1        OBJ        -3.47446
    y_1        c_6206     1
    y_1        capacity   0.868614
    y_2        OBJ        -4.31821
    y_2        c_6207     1
    y_2        capacity   1.07955
    y_3        OBJ        -7.19835
    y_3        c_6208     1
    y_3        capacity   1.79959
    y_4        OBJ        -7.98058
    y_4        c_6209     1
    y_4        capacity   1.99514
    y_5        OBJ        -2.86813
    y_5        c_6210     1
    y_5        capacity   0.717034
    y_6        OBJ        -2.77127
    y_6        c_6211     1
    y_6        capacity   0.692816
    y_7        OBJ        -1.82538
    y_7        c_6212     1
    y_7        capacity   0.456344
    y_8        OBJ        -0.778295
    y_8        c_6213     1
    y_8        capacity   0.194574
    y_9        OBJ        -3.8229
    y_9        c_6214     1
    y_9        capacity   0.955726
    y_10       OBJ        -2.71943
    y_10       c_6215     1
    y_10       capacity   0.679858
    y_11       OBJ        -2.79658
    y_11       c_6216     1
    y_11       capacity   0.699146
    y_12       OBJ        -2.30051
    y_12       c_6217     1
    y_12       capacity   0.575129
    y_13       OBJ        -6.94684
    y_13       c_6218     1
    y_13       capacity   1.73671
    y_14       OBJ        -0.54957
    y_14       c_6219     1
    y_14       capacity   0.137392
    y_15       OBJ        -2.57253
    y_15       c_6220     1
    y_15       capacity   0.643132
    y_16       OBJ        -3.42977
    y_16       c_6221     1
    y_16       capacity   0.857442
    y_17       OBJ        -1.01183
    y_17       c_6222     1
    y_17       capacity   0.252958
    y_18       OBJ        -1.29649
    y_18       c_6223     1
    y_18       capacity   0.324123
    y_19       OBJ        -3.36417
    y_19       c_6224     1
    y_19       capacity   0.841041
    y_20       OBJ        -5.91538
    y_20       c_6225     1
    y_20       capacity   1.47885
    y_21       OBJ        -0.343047
    y_21       c_6226     1
    y_21       capacity   0.0857617
    y_22       OBJ        -6.16407
    y_22       c_6227     1
    y_22       capacity   1.54102
    y_23       OBJ        -0.13323
    y_23       c_6228     1
    y_23       capacity   0.0333076
    y_24       OBJ        -0.947628
    y_24       c_6229     1
    y_24       capacity   0.236907
    y_25       OBJ        -0.840646
    y_25       c_6230     1
    y_25       capacity   0.210162
    y_26       OBJ        -3.82549
    y_26       c_6231     1
    y_26       capacity   0.956373
    y_27       OBJ        -6.73234
    y_27       c_6232     1
    y_27       capacity   1.68308
    y_28       OBJ        -7.82055
    y_28       c_6233     1
    y_28       capacity   1.95514
    y_29       OBJ        -7.70837
    y_29       c_6234     1
    y_29       capacity   1.92709
    MARKER    'MARKER'                 'INTEND'
RHS
    RHS       capacity   65.0494
    RHS       c_6205     1
    RHS       c_6206     1
    RHS       c_6207     1
    RHS       c_6208     1
    RHS       c_6209     1
    RHS       c_6210     1
    RHS       c_6211     1
    RHS       c_6212     1
    RHS       c_6213     1
    RHS       c_6214     1
    RHS       c_6215     1
    RHS       c_6216     1
    RHS       c_6217     1
    RHS       c_6218     1
    RHS       c_6219     1
    RHS       c_6220     1
    RHS       c_6221     1
    RHS       c_6222     1
    RHS       c_6223     1
    RHS       c_6224     1
    RHS       c_6225     1
    RHS       c_6226     1
    RHS       c_6227     1
    RHS       c_6228     1
    RHS       c_6229     1
    RHS       c_6230     1
    RHS       c_6231     1
    RHS       c_6232     1
    RHS       c_6233     1
    RHS       c_6234     1
BOUNDS
 LI BND       x_0        0
 UI BND       x_0        1
 LI BND       x_1        0
 UI BND       x_1        1
 LI BND       x_2        0
 UI BND       x_2        1
 LI BND       x_3        0
 UI BND       x_3        1
 LI BND       x_4        0
 UI BND       x_4        1
 LI BND       x_5        0
 UI BND       x_5        1
 LI BND       x_6        0
 UI BND       x_6        1
 LI BND       x_7        0
 UI BND       x_7        1
 LI BND       x_8        0
 UI BND       x_8        1
 LI BND       x_9        0
 UI BND       x_9        1
 LI BND       x_10       0
 UI BND       x_10       1
 LI BND       x_11       0
 UI BND       x_11       1
 LI BND       x_12       0
 UI BND       x_12       1
 LI BND       x_13       0
 UI BND       x_13       1
 LI BND       x_14       0
 UI BND       x_14       1
 LI BND       x_15       0
 UI BND       x_15       1
 LI BND       x_16       0
 UI BND       x_16       1
 LI BND       x_17       0
 UI BND       x_17       1
 LI BND       x_18       0
 UI BND       x_18       1
 LI BND       x_19       0
 UI BND       x_19       1
 LI BND       x_20       0
 UI BND       x_20       1
 LI BND       x_21       0
 UI BND       x_21       1
 LI BND       x_22       0
 UI BND       x_22       1
 LI BND       x_23       0
 UI BND       x_23       1
 LI BND       x_24       0
 UI BND       x_24       1
 LI BND       x_25       0
 UI BND       x_25       1
 LI BND       x_26       0
 UI BND       x_26       1
 LI BND       x_27       0
 UI BND       x_27       1
 LI BND       x_28       0
 UI BND       x_28       1
 LI BND       x_29       0
 UI BND       x_29       1
 LI BND       y_0        0
 UI BND       y_0        1
 LI BND       y_1        0
 UI BND       y_1        1
 LI BND       y_2        0
 UI BND       y_2        1
 LI BND       y_3        0
 UI BND       y_3        1
 LI BND       y_4        0
 UI BND       y_4        1
 LI BND       y_5        0
 UI BND       y_5        1
 LI BND       y_6        0
 UI BND       y_6        1
 LI BND       y_7        0
 UI BND       y_7        1
 LI BND       y_8        0
 UI BND       y_8        1
 LI BND       y_9        0
 UI BND       y_9        1
 LI BND       y_10       0
 UI BND       y_10       1
 LI BND       y_11       0
 UI BND       y_11       1
 LI BND       y_12       0
 UI BND       y_12       1
 LI BND       y_13       0
 UI BND       y_13       1
 LI BND       y_14       0
 UI BND       y_14       1
 LI BND       y_15       0
 UI BND       y_15       1
 LI BND       y_16       0
 UI BND       y_16       1
 LI BND       y_17       0
 UI BND       y_17       1
 LI BND       y_18       0
 UI BND       y_18       1
 LI BND       y_19       0
 UI BND       y_19       1
 LI BND       y_20       0
 UI BND       y_20       1
 LI BND       y_21       0
 UI BND       y_21       1
 LI BND       y_22       0
 UI BND       y_22       1
 LI BND       y_23       0
 UI BND       y_23       1
 LI BND       y_24       0
 UI BND       y_24       1
 LI BND       y_25       0
 UI BND       y_25       1
 LI BND       y_26       0
 UI BND       y_26       1
 LI BND       y_27       0
 UI BND       y_27       1
 LI BND       y_28       0
 UI BND       y_28       1
 LI BND       y_29       0
 UI BND       y_29       1
ENDATA
